78
2 55 76 
1 43 
2 112 100 
1 63 
1 4 
2 79 97 
2 34 90 
1 31 
2 118 70 
1 69 
2 46 109 
2 40 91 
2 82 13 
1 85 
3 75 10 98 
1 73 
1 58 
1 11 
2 116 49 
1 18 
2 1 115 
3 22 3 5 
3 103 26 84 
1 25 
1 16 
2 28 20 
2 21 52 
1 37 
3 39 24 113 
1 12 
1 19 
2 106 67 
1 51 
1 27 
1 117 
2 61 7 
1 30 
3 9 99 72 
1 15 
3 108 29 87 
1 105 
3 96 60 64 
2 104 8 
1 50 
1 38 
1 35 
2 17 42 
1 89 
1 54 
1 48 
3 95 111 107 
2 92 66 
1 93 
1 65 
1 14 
1 53 
1 36 
3 110 47 41 
1 33 
3 81 32 6 
2 2 23 
1 102 
2 88 94 
1 80 
1 62 
1 114 
1 68 
3 45 83 71 
2 78 74 
1 119 
1 59 
1 57 
1 77 
1 86 
1 56 
1 44 
1 120 
1 101 
